
Gurobi 9.5.1 (linux64) logging started Wed Mar  9 18:01:52 2022

Set parameter LogFile to value "../results/logs/log_2022_03_09_17_57.csv_3_80.log"
Set parameter Method to value 3
Gurobi Optimizer version 9.5.1 build v9.5.1rc2 (linux64)
Thread count: 8 physical cores, 8 logical processors, using up to 8 threads
Optimize a model with 5947 rows, 9882 columns and 44842 nonzeros
Model fingerprint: 0x053dfa32
Variable types: 4941 continuous, 4941 integer (4941 binary)
Coefficient statistics:
  Matrix range     [1e+00, 3e+00]
  Objective range  [1e+00, 1e+00]
  Bounds range     [1e+00, 1e+00]
  RHS range        [1e+00, 8e+01]
Found heuristic solution: objective 231.0000000
Presolve removed 2783 rows and 5534 columns
Presolve time: 0.04s
Presolved: 3164 rows, 4348 columns, 16843 nonzeros
Variable types: 2523 continuous, 1825 integer (1795 binary)
Found heuristic solution: objective 277.0000000

Concurrent LP optimizer: primal simplex, dual simplex, and barrier
Showing barrier log only...

Root barrier log...

Ordering time: 0.00s

Barrier statistics:
 AA' NZ     : 1.450e+04
 Factor NZ  : 4.269e+04 (roughly 3 MB of memory)
 Factor Ops : 6.627e+05 (less than 1 second per iteration)
 Threads    : 1

                  Objective                Residual
Iter       Primal          Dual         Primal    Dual     Compl     Time
   0   1.26966964e+04  1.26877200e+04  4.77e+03 9.44e-01  3.90e+01     0s
   1   5.80656981e+03  1.94823211e+04  2.05e+03 7.11e-15  1.65e+01     0s
   2   1.24382037e+03  1.32141580e+04  1.32e+02 6.22e-15  1.85e+00     0s
   3   1.01452512e+03  3.13378129e+03  1.98e+01 1.11e-14  2.66e-01     0s
   4   1.09751850e+03  1.67222103e+03  2.54e+00 7.33e-15  5.63e-02     0s
   5   1.16513698e+03  1.43134909e+03  1.09e+00 5.18e-15  2.50e-02     0s
   6   1.20089348e+03  1.31941951e+03  5.50e-01 3.59e-15  1.11e-02     0s
   7   1.23769839e+03  1.26811227e+03  3.92e-02 3.55e-15  2.65e-03     0s
   8   1.24797200e+03  1.25316002e+03  2.10e-03 2.63e-15  4.45e-04     0s
   9   1.24867778e+03  1.25047106e+03  6.74e-04 1.89e-15  1.54e-04     0s
  10   1.24889988e+03  1.24931274e+03  2.52e-04 2.58e-15  3.56e-05     0s
  11   1.24903402e+03  1.24903878e+03  1.70e-07 2.66e-15  4.06e-07     0s
  12   1.24903618e+03  1.24903618e+03  4.95e-13 3.06e-15  3.09e-12     0s

Barrier solved model in 12 iterations and 0.08 seconds (0.08 work units)
Optimal objective 1.24903618e+03


Solved with barrier

Root relaxation: objective 1.249036e+03, 546 iterations, 0.05 seconds (0.04 work units)

    Nodes    |    Current Node    |     Objective Bounds      |     Work
 Expl Unexpl |  Obj  Depth IntInf | Incumbent    BestBd   Gap | It/Node Time

     0     0 1249.03618    0 1162  277.00000 1249.03618   351%     -    0s
H    0     0                     279.0000000 1249.03618   348%     -    0s
H    0     0                     289.0000000 1248.38265   332%     -    0s
     0     0  843.23148    0  790  289.00000  843.23148   192%     -    0s
     0     0  811.57303    0  680  289.00000  811.57303   181%     -    0s
     0     0  809.66804    0  687  289.00000  809.66804   180%     -    0s
     0     0  809.62392    0  685  289.00000  809.62392   180%     -    0s
H    0     0                     315.0000000  718.68488   128%     -    0s
H    0     0                     317.0000000  718.68488   127%     -    0s
     0     0  718.68488    0  636  317.00000  718.68488   127%     -    0s
     0     0  709.54220    0  606  317.00000  709.54220   124%     -    0s
H    0     0                     320.0000000  706.92313   121%     -    0s
     0     0  706.92313    0  613  320.00000  706.92313   121%     -    0s
     0     0  706.74494    0  594  320.00000  706.74494   121%     -    0s
     0     0  675.96065    0  490  320.00000  675.96065   111%     -    0s
H    0     0                     321.0000000  670.32910   109%     -    0s
     0     0  670.32910    0  499  321.00000  670.32910   109%     -    0s
H    0     0                     322.0000000  668.20585   108%     -    0s
     0     0  668.20585    0  445  322.00000  668.20585   108%     -    0s
     0     0  667.72689    0  484  322.00000  667.72689   107%     -    0s
H    0     0                     324.0000000  667.72689   106%     -    1s
H    0     0                     327.0000000  667.72689   104%     -    1s
     0     0  655.80234    0  517  327.00000  655.80234   101%     -    1s
H    0     0                     334.0000000  651.51026  95.1%     -    1s
     0     0  651.51026    0  480  334.00000  651.51026  95.1%     -    1s
     0     0  650.64001    0  518  334.00000  650.64001  94.8%     -    1s
H    0     0                     343.0000000  650.51181  89.7%     -    1s
     0     0  650.51181    0  515  343.00000  650.51181  89.7%     -    1s
     0     0  646.76875    0  517  343.00000  646.76875  88.6%     -    1s
     0     0  645.74034    0  588  343.00000  645.74034  88.3%     -    1s
     0     0  645.52357    0  519  343.00000  645.52357  88.2%     -    1s
     0     0  641.90774    0  541  343.00000  641.90774  87.1%     -    1s
     0     0  641.90774    0  539  343.00000  641.90774  87.1%     -    1s
     0     2  641.90774    0  538  343.00000  641.90774  87.1%     -    1s
H   34    40                     346.0000000  640.60108  85.1%   102    1s
H   35    40                     364.0000000  640.60108  76.0%   101    1s
H  133   142                     372.0000000  640.28663  72.1%  55.4    1s
H  137   142                     378.0000000  640.28663  69.4%  54.4    1s
H  180   189                     393.0000000  640.28663  62.9%  52.9    2s
H  187   189                     421.0000000  640.28663  52.1%  52.4    2s
H  885   915                     451.0000000  640.28663  42.0%  42.2    3s
H  887   915                     462.0000000  640.28663  38.6%  42.3    3s
H  894   915                     502.0000000  640.28663  27.5%  42.5    3s
H 1211  1214                     558.0000000  640.28663  14.7%  41.9    3s
H 2106  2052                     573.0000000  640.28663  11.7%  39.9    4s
  2580  2536  588.52865  196   40  573.00000  640.28663  11.7%  41.6    5s
H 2975  2828                     575.0000000  640.25834  11.3%  43.5    6s
H 3016  2712                     605.0000000  624.05173  3.15%  42.9    9s
  3020  2714  623.82991   22  248  605.00000  623.82991  3.11%  42.8   10s
H 3021  2579                     608.0000000  623.62055  2.57%  42.8   10s
  3080  2620  622.69093   56  192  608.00000  622.69093  2.42%  46.9   15s
H 3120  2523                     614.0000000  622.16579  1.33%  50.0   17s
H 3205  2451                     617.0000000  622.10386  0.83%  50.1   17s
H 3306  2328                     618.0000000  622.10386  0.66%  50.0   18s
* 3415  2209              49     621.0000000  622.10386  0.18%  49.9   18s

Cutting planes:
  Gomory: 165
  Lift-and-project: 132
  Implied bound: 21
  MIR: 865
  Flow cover: 810
  RLT: 86
  Relax-and-lift: 55

Explored 3496 nodes (181087 simplex iterations) in 18.61 seconds (19.25 work units)
Thread count was 8 (of 8 available processors)

Solution count 10: 621 618 617 ... 502

Optimal solution found (tolerance 1.00e-04)
Best objective 6.210000000000e+02, best bound 6.210000000000e+02, gap 0.0000%
